Maximize
  - 3.833813961078 edge_0_1_0_0 - 2.7944298323342 edge_0_2_0_0
   - 1.1011274312742 edge_0_3_0_0 - 2.694346839488 edge_0_6_0_0
   - 4.589349449277999 edge_0_10_0_0 - 4.3648510263358 edge_0_12_0_0
   - 0.10104273526734 edge_0_13_0_0 - 3.806745912398 edge_0_14_0_0
   + 1.4069191486434 edge_1_2_0_0 - 0.215532549734151 edge_1_3_0_0
   - 0.759355021006211 edge_1_5_0_0 - 0.0509088519785526 edge_1_6_0_0
   - 0.1845288341843275 edge_1_7_0_0 - 0.4655866284165415 edge_1_8_0_0
   - 2.045289118585276 edge_1_10_0_0 - 1.987047676145486 edge_1_12_0_0
   - 0.8260139551509935 edge_1_13_0_0 + 0.9886623996263468 edge_1_15_0_0
   + 3.6017672494678 edge_2_1_0_0 + 0.5466959728579798 edge_2_3_0_0
   - 0.00365700426574773 edge_2_5_0_0 + 0.17585253036112 edge_2_6_0_0
   + 0.3546387408013343 edge_2_7_0_0 - 0.069681695825342 edge_2_8_0_0
   - 0.050540629919658 edge_2_10_0_0 - 0.2227574295559934 edge_2_12_0_0
   - 0.2267393923368357 edge_2_13_0_0 - 0.18740503394608 edge_2_14_0_0
   + 1.5705677540849 edge_2_15_0_0 + 1.807902657278966 edge_3_1_0_0
   + 1.939284465181525 edge_3_2_0_0 + 1.060420065996141 edge_3_5_0_0
   + 2.994607658468056 edge_3_6_0_0 + 1.902832222786968 edge_3_7_0_0
   + 2.096005126111657 edge_3_8_0_0 - 0.4774687543549032 edge_3_9_0_0
   + 0.4523481748566769 edge_3_10_0_0 + 0.4362459651711026 edge_3_12_0_0
   + 2.672186308295605 edge_3_13_0_0 + 0.670705982742022 edge_3_14_0_0
   + 3.084238475890273 edge_3_15_0_0 - 1.629509156002569 edge_5_1_0_0
   - 1.4518471758543 edge_5_2_0_0 - 0.4496999717755847 edge_5_3_0_0
   + 0.1162772308784827 edge_5_7_0_0 - 0.8667097215551549 edge_5_10_0_0
   - 0.6981436877214624 edge_5_12_0_0 + 0.144163128390014 edge_5_13_0_0
   - 0.5874418313062262 edge_5_14_0_0 + 0.8393616110646664 edge_6_1_0_0
   + 0.56468585852819 edge_6_2_0_0 + 1.132762415233385 edge_6_3_0_0
   + 4.081932825515035 edge_6_5_0_0 + 1.958700135573841 edge_6_7_0_0
   + 1.843279650501343 edge_6_8_0_0 - 0.3083716577417897 edge_6_9_0_0
   - 0.3863507852395021 edge_6_10_0_0 - 0.2386096439653217 edge_6_12_0_0
   + 0.8208787052361936 edge_6_13_0_0 + 0.2221442808418225 edge_6_14_0_0
   + 2.38424954827927 edge_6_15_0_0 - 1.219413390918238 edge_7_1_0_0
   - 1.274551462375108 edge_7_2_0_0 - 1.07561288385002 edge_7_3_0_0
   - 0.7269153286026652 edge_7_5_0_0 - 0.4193630027334562 edge_7_6_0_0
   + 0.1851024664320802 edge_7_8_0_0 + 0.295780255841365 edge_7_13_0_0
   - 0.5095247969498057 edge_7_14_0_0 - 1.521887965744194 edge_8_6_0_0
   - 0.9313574533520562 edge_8_7_0_0 - 0.1038818984091507 edge_8_10_0_0
   + 0.00241480835492656 edge_8_12_0_0 + 0.3339075973210635 edge_8_13_0_0
   - 0.2351839352097412 edge_8_14_0_0 + 1.284922369301784 edge_8_15_0_0
   - 0.1516722975432163 edge_9_14_0_0 - 0.6179226009964577 edge_10_1_0_0
   - 0.6030397892518105 edge_10_2_0_0 - 0.5525685311195232 edge_10_3_0_0
   - 0.0573610931818249 edge_10_5_0_0 - 0.2263694543120172 edge_10_6_0_0
   + 2.2025631763626237e-04 edge_10_7_0_0 + 2.201156454235994 edge_10_9_0_0
   + 2.363263643201329 edge_10_12_0_0 + 0.2942219293867242 edge_10_13_0_0
   + 0.7606037517491834 edge_10_14_0_0 + 0.6868709354496492 edge_10_15_0_0
   - 0.8778201017318221 edge_12_1_0_0 - 0.6390040560256642 edge_12_2_0_0
   - 0.4990516208115057 edge_12_3_0_0 - 0.1872047645544794 edge_12_5_0_0
   - 0.3118856213971403 edge_12_6_0_0 + 0.0349431019418964 edge_12_7_0_0
   - 0.7608714729715852 edge_12_8_0_0 + 2.368171033714257 edge_12_9_0_0
   + 2.888114464453822 edge_12_10_0_0 + 0.4929539868052745 edge_12_13_0_0
   + 1.039742845012608 edge_12_14_0_0 + 1.840153928527562 edge_12_15_0_0
   + 1.229149207542639 edge_13_1_0_0 + 0.3292531175993318 edge_13_2_0_0
   + 0.6682171424568799 edge_13_3_0_0 + 0.1792040063930731 edge_13_5_0_0
   + 1.086122524045732 edge_13_6_0_0 + 1.734155442357837 edge_13_7_0_0
   + 0.3584134337516228 edge_13_8_0_0 + 0.1655475410975127 edge_13_9_0_0
   + 1.573439622374422 edge_13_10_0_0 + 1.664293752859443 edge_13_12_0_0
   + 2.783174197931497 edge_13_14_0_0 + 3.155415109099541 edge_13_15_0_0
   - 0.866376578494828 edge_14_1_0_0 - 1.0352167291024 edge_14_2_0_0
   - 0.1466982712181331 edge_14_3_0_0 - 0.5563655724991122 edge_14_6_0_0
   + 0.0585442605997545 edge_14_7_0_0 + 0.1541797311096619 edge_14_8_0_0
   - 0.327581845682478 edge_14_9_0_0 + 0.2261881345515529 edge_14_10_0_0
   + 0.5050360795239902 edge_14_12_0_0 + 1.44598291412923 edge_14_13_0_0
   + 0.7187378101115102 edge_14_15_0_0 - 0.7175441356730895 edge_15_10_0_0
   - 1.249538929322438 edge_15_12_0_0
Subject To
 one_parent_1: edge_0_1_0_0 + edge_2_1_0_0 + edge_3_1_0_0 + edge_5_1_0_0
   + edge_6_1_0_0 + edge_7_1_0_0 + edge_10_1_0_0 + edge_12_1_0_0
   + edge_13_1_0_0 + edge_14_1_0_0 = 1
 consume_one_flow_unit_1: flow_0_1_0_0 - flow_1_2_0_0 - flow_1_3_0_0
   - flow_1_5_0_0 - flow_1_6_0_0 - flow_1_7_0_0 - flow_1_8_0_0
   - flow_1_10_0_0 - flow_1_12_0_0 - flow_1_13_0_0 - flow_1_15_0_0
   + flow_2_1_0_0 + flow_3_1_0_0 + flow_5_1_0_0 + flow_6_1_0_0
   + flow_7_1_0_0 + flow_10_1_0_0 + flow_12_1_0_0 + flow_13_1_0_0
   + flow_14_1_0_0 = 1
 one_parent_2: edge_0_2_0_0 + edge_1_2_0_0 + edge_3_2_0_0 + edge_5_2_0_0
   + edge_6_2_0_0 + edge_7_2_0_0 + edge_10_2_0_0 + edge_12_2_0_0
   + edge_13_2_0_0 + edge_14_2_0_0 = 1
 consume_one_flow_unit_2: flow_0_2_0_0 + flow_1_2_0_0 - flow_2_1_0_0
   - flow_2_3_0_0 - flow_2_5_0_0 - flow_2_6_0_0 - flow_2_7_0_0
   - flow_2_8_0_0 - flow_2_10_0_0 - flow_2_12_0_0 - flow_2_13_0_0
   - flow_2_14_0_0 - flow_2_15_0_0 + flow_3_2_0_0 + flow_5_2_0_0
   + flow_6_2_0_0 + flow_7_2_0_0 + flow_10_2_0_0 + flow_12_2_0_0
   + flow_13_2_0_0 + flow_14_2_0_0 = 1
 one_parent_3: edge_0_3_0_0 + edge_1_3_0_0 + edge_2_3_0_0 + edge_5_3_0_0
   + edge_6_3_0_0 + edge_7_3_0_0 + edge_10_3_0_0 + edge_12_3_0_0
   + edge_13_3_0_0 + edge_14_3_0_0 = 1
 consume_one_flow_unit_3: flow_0_3_0_0 + flow_1_3_0_0 + flow_2_3_0_0
   - flow_3_1_0_0 - flow_3_2_0_0 - flow_3_5_0_0 - flow_3_6_0_0
   - flow_3_7_0_0 - flow_3_8_0_0 - flow_3_9_0_0 - flow_3_10_0_0
   - flow_3_12_0_0 - flow_3_13_0_0 - flow_3_14_0_0 - flow_3_15_0_0
   + flow_5_3_0_0 + flow_6_3_0_0 + flow_7_3_0_0 + flow_10_3_0_0
   + flow_12_3_0_0 + flow_13_3_0_0 + flow_14_3_0_0 = 1
 one_parent_4: = 1
 consume_one_flow_unit_4: = 1
 one_parent_5: edge_1_5_0_0 + edge_2_5_0_0 + edge_3_5_0_0 + edge_6_5_0_0
   + edge_7_5_0_0 + edge_10_5_0_0 + edge_12_5_0_0 + edge_13_5_0_0 = 1
 consume_one_flow_unit_5: flow_1_5_0_0 + flow_2_5_0_0 + flow_3_5_0_0
   - flow_5_1_0_0 - flow_5_2_0_0 - flow_5_3_0_0 - flow_5_7_0_0
   - flow_5_10_0_0 - flow_5_12_0_0 - flow_5_13_0_0 - flow_5_14_0_0
   + flow_6_5_0_0 + flow_7_5_0_0 + flow_10_5_0_0 + flow_12_5_0_0
   + flow_13_5_0_0 = 1
 one_parent_6: edge_0_6_0_0 + edge_1_6_0_0 + edge_2_6_0_0 + edge_3_6_0_0
   + edge_7_6_0_0 + edge_8_6_0_0 + edge_10_6_0_0 + edge_12_6_0_0
   + edge_13_6_0_0 + edge_14_6_0_0 = 1
 consume_one_flow_unit_6: flow_0_6_0_0 + flow_1_6_0_0 + flow_2_6_0_0
   + flow_3_6_0_0 - flow_6_1_0_0 - flow_6_2_0_0 - flow_6_3_0_0
   - flow_6_5_0_0 - flow_6_7_0_0 - flow_6_8_0_0 - flow_6_9_0_0
   - flow_6_10_0_0 - flow_6_12_0_0 - flow_6_13_0_0 - flow_6_14_0_0
   - flow_6_15_0_0 + flow_7_6_0_0 + flow_8_6_0_0 + flow_10_6_0_0
   + flow_12_6_0_0 + flow_13_6_0_0 + flow_14_6_0_0 = 1
 one_parent_7: edge_1_7_0_0 + edge_2_7_0_0 + edge_3_7_0_0 + edge_5_7_0_0
   + edge_6_7_0_0 + edge_8_7_0_0 + edge_10_7_0_0 + edge_12_7_0_0
   + edge_13_7_0_0 + edge_14_7_0_0 = 1
 consume_one_flow_unit_7: flow_1_7_0_0 + flow_2_7_0_0 + flow_3_7_0_0
   + flow_5_7_0_0 + flow_6_7_0_0 - flow_7_1_0_0 - flow_7_2_0_0
   - flow_7_3_0_0 - flow_7_5_0_0 - flow_7_6_0_0 - flow_7_8_0_0
   - flow_7_13_0_0 - flow_7_14_0_0 + flow_8_7_0_0 + flow_10_7_0_0
   + flow_12_7_0_0 + flow_13_7_0_0 + flow_14_7_0_0 = 1
 one_parent_8: edge_1_8_0_0 + edge_2_8_0_0 + edge_3_8_0_0 + edge_6_8_0_0
   + edge_7_8_0_0 + edge_12_8_0_0 + edge_13_8_0_0 + edge_14_8_0_0 = 1
 consume_one_flow_unit_8: flow_1_8_0_0 + flow_2_8_0_0 + flow_3_8_0_0
   + flow_6_8_0_0 + flow_7_8_0_0 - flow_8_6_0_0 - flow_8_7_0_0
   - flow_8_10_0_0 - flow_8_12_0_0 - flow_8_13_0_0 - flow_8_14_0_0
   - flow_8_15_0_0 + flow_12_8_0_0 + flow_13_8_0_0 + flow_14_8_0_0 = 1
 one_parent_9: edge_3_9_0_0 + edge_6_9_0_0 + edge_10_9_0_0 + edge_12_9_0_0
   + edge_13_9_0_0 + edge_14_9_0_0 = 1
 consume_one_flow_unit_9: flow_3_9_0_0 + flow_6_9_0_0 - flow_9_14_0_0
   + flow_10_9_0_0 + flow_12_9_0_0 + flow_13_9_0_0 + flow_14_9_0_0 = 1
 one_parent_10: edge_0_10_0_0 + edge_1_10_0_0 + edge_2_10_0_0
   + edge_3_10_0_0 + edge_5_10_0_0 + edge_6_10_0_0 + edge_8_10_0_0
   + edge_12_10_0_0 + edge_13_10_0_0 + edge_14_10_0_0 + edge_15_10_0_0 = 1
 consume_one_flow_unit_10: flow_0_10_0_0 + flow_1_10_0_0 + flow_2_10_0_0
   + flow_3_10_0_0 + flow_5_10_0_0 + flow_6_10_0_0 + flow_8_10_0_0
   - flow_10_1_0_0 - flow_10_2_0_0 - flow_10_3_0_0 - flow_10_5_0_0
   - flow_10_6_0_0 - flow_10_7_0_0 - flow_10_9_0_0 - flow_10_12_0_0
   - flow_10_13_0_0 - flow_10_14_0_0 - flow_10_15_0_0 + flow_12_10_0_0
   + flow_13_10_0_0 + flow_14_10_0_0 + flow_15_10_0_0 = 1
 one_parent_11: = 1
 consume_one_flow_unit_11: = 1
 one_parent_12: edge_0_12_0_0 + edge_1_12_0_0 + edge_2_12_0_0
   + edge_3_12_0_0 + edge_5_12_0_0 + edge_6_12_0_0 + edge_8_12_0_0
   + edge_10_12_0_0 + edge_13_12_0_0 + edge_14_12_0_0 + edge_15_12_0_0 = 1
 consume_one_flow_unit_12: flow_0_12_0_0 + flow_1_12_0_0 + flow_2_12_0_0
   + flow_3_12_0_0 + flow_5_12_0_0 + flow_6_12_0_0 + flow_8_12_0_0
   + flow_10_12_0_0 - flow_12_1_0_0 - flow_12_2_0_0 - flow_12_3_0_0
   - flow_12_5_0_0 - flow_12_6_0_0 - flow_12_7_0_0 - flow_12_8_0_0
   - flow_12_9_0_0 - flow_12_10_0_0 - flow_12_13_0_0 - flow_12_14_0_0
   - flow_12_15_0_0 + flow_13_12_0_0 + flow_14_12_0_0 + flow_15_12_0_0 = 1
 one_parent_13: edge_0_13_0_0 + edge_1_13_0_0 + edge_2_13_0_0
   + edge_3_13_0_0 + edge_5_13_0_0 + edge_6_13_0_0 + edge_7_13_0_0
   + edge_8_13_0_0 + edge_10_13_0_0 + edge_12_13_0_0 + edge_14_13_0_0 = 1
 consume_one_flow_unit_13: flow_0_13_0_0 + flow_1_13_0_0 + flow_2_13_0_0
   + flow_3_13_0_0 + flow_5_13_0_0 + flow_6_13_0_0 + flow_7_13_0_0
   + flow_8_13_0_0 + flow_10_13_0_0 + flow_12_13_0_0 - flow_13_1_0_0
   - flow_13_2_0_0 - flow_13_3_0_0 - flow_13_5_0_0 - flow_13_6_0_0
   - flow_13_7_0_0 - flow_13_8_0_0 - flow_13_9_0_0 - flow_13_10_0_0
   - flow_13_12_0_0 - flow_13_14_0_0 - flow_13_15_0_0 + flow_14_13_0_0 = 1
 one_parent_14: edge_0_14_0_0 + edge_2_14_0_0 + edge_3_14_0_0
   + edge_5_14_0_0 + edge_6_14_0_0 + edge_7_14_0_0 + edge_8_14_0_0
   + edge_9_14_0_0 + edge_10_14_0_0 + edge_12_14_0_0 + edge_13_14_0_0 = 1
 consume_one_flow_unit_14: flow_0_14_0_0 + flow_2_14_0_0 + flow_3_14_0_0
   + flow_5_14_0_0 + flow_6_14_0_0 + flow_7_14_0_0 + flow_8_14_0_0
   + flow_9_14_0_0 + flow_10_14_0_0 + flow_12_14_0_0 + flow_13_14_0_0
   - flow_14_1_0_0 - flow_14_2_0_0 - flow_14_3_0_0 - flow_14_6_0_0
   - flow_14_7_0_0 - flow_14_8_0_0 - flow_14_9_0_0 - flow_14_10_0_0
   - flow_14_12_0_0 - flow_14_13_0_0 - flow_14_15_0_0 = 1
 one_parent_15: edge_1_15_0_0 + edge_2_15_0_0 + edge_3_15_0_0
   + edge_6_15_0_0 + edge_8_15_0_0 + edge_10_15_0_0 + edge_12_15_0_0
   + edge_13_15_0_0 + edge_14_15_0_0 = 1
 consume_one_flow_unit_15: flow_1_15_0_0 + flow_2_15_0_0 + flow_3_15_0_0
   + flow_6_15_0_0 + flow_8_15_0_0 + flow_10_15_0_0 + flow_12_15_0_0
   + flow_13_15_0_0 + flow_14_15_0_0 - flow_15_10_0_0 - flow_15_12_0_0 = 1
 root_flow: flow_0_1_0_0 + flow_0_2_0_0 + flow_0_3_0_0 + flow_0_6_0_0
   + flow_0_10_0_0 + flow_0_12_0_0 + flow_0_13_0_0 + flow_0_14_0_0 = 15
 inactive_no_flow_0_1_0_0: flow_0_1_0_0 - 1000 edge_0_1_0_0 <= 0
 inactive_no_flow_0_2_0_0: flow_0_2_0_0 - 1000 edge_0_2_0_0 <= 0
 inactive_no_flow_0_3_0_0: flow_0_3_0_0 - 1000 edge_0_3_0_0 <= 0
 inactive_no_flow_0_6_0_0: flow_0_6_0_0 - 1000 edge_0_6_0_0 <= 0
 inactive_no_flow_0_10_0_0: flow_0_10_0_0 - 1000 edge_0_10_0_0 <= 0
 inactive_no_flow_0_12_0_0: flow_0_12_0_0 - 1000 edge_0_12_0_0 <= 0
 inactive_no_flow_0_13_0_0: flow_0_13_0_0 - 1000 edge_0_13_0_0 <= 0
 inactive_no_flow_0_14_0_0: flow_0_14_0_0 - 1000 edge_0_14_0_0 <= 0
 inactive_no_flow_1_2_0_0: flow_1_2_0_0 - 1000 edge_1_2_0_0 <= 0
 inactive_no_flow_1_3_0_0: flow_1_3_0_0 - 1000 edge_1_3_0_0 <= 0
 inactive_no_flow_1_5_0_0: flow_1_5_0_0 - 1000 edge_1_5_0_0 <= 0
 inactive_no_flow_1_6_0_0: flow_1_6_0_0 - 1000 edge_1_6_0_0 <= 0
 inactive_no_flow_1_7_0_0: flow_1_7_0_0 - 1000 edge_1_7_0_0 <= 0
 inactive_no_flow_1_8_0_0: flow_1_8_0_0 - 1000 edge_1_8_0_0 <= 0
 inactive_no_flow_1_10_0_0: flow_1_10_0_0 - 1000 edge_1_10_0_0 <= 0
 inactive_no_flow_1_12_0_0: flow_1_12_0_0 - 1000 edge_1_12_0_0 <= 0
 inactive_no_flow_1_13_0_0: flow_1_13_0_0 - 1000 edge_1_13_0_0 <= 0
 inactive_no_flow_1_15_0_0: flow_1_15_0_0 - 1000 edge_1_15_0_0 <= 0
 inactive_no_flow_2_1_0_0: flow_2_1_0_0 - 1000 edge_2_1_0_0 <= 0
 inactive_no_flow_2_3_0_0: flow_2_3_0_0 - 1000 edge_2_3_0_0 <= 0
 inactive_no_flow_2_5_0_0: flow_2_5_0_0 - 1000 edge_2_5_0_0 <= 0
 inactive_no_flow_2_6_0_0: flow_2_6_0_0 - 1000 edge_2_6_0_0 <= 0
 inactive_no_flow_2_7_0_0: flow_2_7_0_0 - 1000 edge_2_7_0_0 <= 0
 inactive_no_flow_2_8_0_0: flow_2_8_0_0 - 1000 edge_2_8_0_0 <= 0
 inactive_no_flow_2_10_0_0: flow_2_10_0_0 - 1000 edge_2_10_0_0 <= 0
 inactive_no_flow_2_12_0_0: flow_2_12_0_0 - 1000 edge_2_12_0_0 <= 0
 inactive_no_flow_2_13_0_0: flow_2_13_0_0 - 1000 edge_2_13_0_0 <= 0
 inactive_no_flow_2_14_0_0: flow_2_14_0_0 - 1000 edge_2_14_0_0 <= 0
 inactive_no_flow_2_15_0_0: flow_2_15_0_0 - 1000 edge_2_15_0_0 <= 0
 inactive_no_flow_3_1_0_0: flow_3_1_0_0 - 1000 edge_3_1_0_0 <= 0
 inactive_no_flow_3_2_0_0: flow_3_2_0_0 - 1000 edge_3_2_0_0 <= 0
 inactive_no_flow_3_5_0_0: flow_3_5_0_0 - 1000 edge_3_5_0_0 <= 0
 inactive_no_flow_3_6_0_0: flow_3_6_0_0 - 1000 edge_3_6_0_0 <= 0
 inactive_no_flow_3_7_0_0: flow_3_7_0_0 - 1000 edge_3_7_0_0 <= 0
 inactive_no_flow_3_8_0_0: flow_3_8_0_0 - 1000 edge_3_8_0_0 <= 0
 inactive_no_flow_3_9_0_0: flow_3_9_0_0 - 1000 edge_3_9_0_0 <= 0
 inactive_no_flow_3_10_0_0: flow_3_10_0_0 - 1000 edge_3_10_0_0 <= 0
 inactive_no_flow_3_12_0_0: flow_3_12_0_0 - 1000 edge_3_12_0_0 <= 0
 inactive_no_flow_3_13_0_0: flow_3_13_0_0 - 1000 edge_3_13_0_0 <= 0
 inactive_no_flow_3_14_0_0: flow_3_14_0_0 - 1000 edge_3_14_0_0 <= 0
 inactive_no_flow_3_15_0_0: flow_3_15_0_0 - 1000 edge_3_15_0_0 <= 0
 inactive_no_flow_5_1_0_0: flow_5_1_0_0 - 1000 edge_5_1_0_0 <= 0
 inactive_no_flow_5_2_0_0: flow_5_2_0_0 - 1000 edge_5_2_0_0 <= 0
 inactive_no_flow_5_3_0_0: flow_5_3_0_0 - 1000 edge_5_3_0_0 <= 0
 inactive_no_flow_5_7_0_0: flow_5_7_0_0 - 1000 edge_5_7_0_0 <= 0
 inactive_no_flow_5_10_0_0: flow_5_10_0_0 - 1000 edge_5_10_0_0 <= 0
 inactive_no_flow_5_12_0_0: flow_5_12_0_0 - 1000 edge_5_12_0_0 <= 0
 inactive_no_flow_5_13_0_0: flow_5_13_0_0 - 1000 edge_5_13_0_0 <= 0
 inactive_no_flow_5_14_0_0: flow_5_14_0_0 - 1000 edge_5_14_0_0 <= 0
 inactive_no_flow_6_1_0_0: flow_6_1_0_0 - 1000 edge_6_1_0_0 <= 0
 inactive_no_flow_6_2_0_0: flow_6_2_0_0 - 1000 edge_6_2_0_0 <= 0
 inactive_no_flow_6_3_0_0: flow_6_3_0_0 - 1000 edge_6_3_0_0 <= 0
 inactive_no_flow_6_5_0_0: flow_6_5_0_0 - 1000 edge_6_5_0_0 <= 0
 inactive_no_flow_6_7_0_0: flow_6_7_0_0 - 1000 edge_6_7_0_0 <= 0
 inactive_no_flow_6_8_0_0: flow_6_8_0_0 - 1000 edge_6_8_0_0 <= 0
 inactive_no_flow_6_9_0_0: flow_6_9_0_0 - 1000 edge_6_9_0_0 <= 0
 inactive_no_flow_6_10_0_0: flow_6_10_0_0 - 1000 edge_6_10_0_0 <= 0
 inactive_no_flow_6_12_0_0: flow_6_12_0_0 - 1000 edge_6_12_0_0 <= 0
 inactive_no_flow_6_13_0_0: flow_6_13_0_0 - 1000 edge_6_13_0_0 <= 0
 inactive_no_flow_6_14_0_0: flow_6_14_0_0 - 1000 edge_6_14_0_0 <= 0
 inactive_no_flow_6_15_0_0: flow_6_15_0_0 - 1000 edge_6_15_0_0 <= 0
 inactive_no_flow_7_1_0_0: flow_7_1_0_0 - 1000 edge_7_1_0_0 <= 0
 inactive_no_flow_7_2_0_0: flow_7_2_0_0 - 1000 edge_7_2_0_0 <= 0
 inactive_no_flow_7_3_0_0: flow_7_3_0_0 - 1000 edge_7_3_0_0 <= 0
 inactive_no_flow_7_5_0_0: flow_7_5_0_0 - 1000 edge_7_5_0_0 <= 0
 inactive_no_flow_7_6_0_0: flow_7_6_0_0 - 1000 edge_7_6_0_0 <= 0
 inactive_no_flow_7_8_0_0: flow_7_8_0_0 - 1000 edge_7_8_0_0 <= 0
 inactive_no_flow_7_13_0_0: flow_7_13_0_0 - 1000 edge_7_13_0_0 <= 0
 inactive_no_flow_7_14_0_0: flow_7_14_0_0 - 1000 edge_7_14_0_0 <= 0
 inactive_no_flow_8_6_0_0: flow_8_6_0_0 - 1000 edge_8_6_0_0 <= 0
 inactive_no_flow_8_7_0_0: flow_8_7_0_0 - 1000 edge_8_7_0_0 <= 0
 inactive_no_flow_8_10_0_0: flow_8_10_0_0 - 1000 edge_8_10_0_0 <= 0
 inactive_no_flow_8_12_0_0: flow_8_12_0_0 - 1000 edge_8_12_0_0 <= 0
 inactive_no_flow_8_13_0_0: flow_8_13_0_0 - 1000 edge_8_13_0_0 <= 0
 inactive_no_flow_8_14_0_0: flow_8_14_0_0 - 1000 edge_8_14_0_0 <= 0
 inactive_no_flow_8_15_0_0: flow_8_15_0_0 - 1000 edge_8_15_0_0 <= 0
 inactive_no_flow_9_14_0_0: flow_9_14_0_0 - 1000 edge_9_14_0_0 <= 0
 inactive_no_flow_10_1_0_0: flow_10_1_0_0 - 1000 edge_10_1_0_0 <= 0
 inactive_no_flow_10_2_0_0: flow_10_2_0_0 - 1000 edge_10_2_0_0 <= 0
 inactive_no_flow_10_3_0_0: flow_10_3_0_0 - 1000 edge_10_3_0_0 <= 0
 inactive_no_flow_10_5_0_0: flow_10_5_0_0 - 1000 edge_10_5_0_0 <= 0
 inactive_no_flow_10_6_0_0: flow_10_6_0_0 - 1000 edge_10_6_0_0 <= 0
 inactive_no_flow_10_7_0_0: flow_10_7_0_0 - 1000 edge_10_7_0_0 <= 0
 inactive_no_flow_10_9_0_0: flow_10_9_0_0 - 1000 edge_10_9_0_0 <= 0
 inactive_no_flow_10_12_0_0: flow_10_12_0_0 - 1000 edge_10_12_0_0 <= 0
 inactive_no_flow_10_13_0_0: flow_10_13_0_0 - 1000 edge_10_13_0_0 <= 0
 inactive_no_flow_10_14_0_0: flow_10_14_0_0 - 1000 edge_10_14_0_0 <= 0
 inactive_no_flow_10_15_0_0: flow_10_15_0_0 - 1000 edge_10_15_0_0 <= 0
 inactive_no_flow_12_1_0_0: flow_12_1_0_0 - 1000 edge_12_1_0_0 <= 0
 inactive_no_flow_12_2_0_0: flow_12_2_0_0 - 1000 edge_12_2_0_0 <= 0
 inactive_no_flow_12_3_0_0: flow_12_3_0_0 - 1000 edge_12_3_0_0 <= 0
 inactive_no_flow_12_5_0_0: flow_12_5_0_0 - 1000 edge_12_5_0_0 <= 0
 inactive_no_flow_12_6_0_0: flow_12_6_0_0 - 1000 edge_12_6_0_0 <= 0
 inactive_no_flow_12_7_0_0: flow_12_7_0_0 - 1000 edge_12_7_0_0 <= 0
 inactive_no_flow_12_8_0_0: flow_12_8_0_0 - 1000 edge_12_8_0_0 <= 0
 inactive_no_flow_12_9_0_0: flow_12_9_0_0 - 1000 edge_12_9_0_0 <= 0
 inactive_no_flow_12_10_0_0: flow_12_10_0_0 - 1000 edge_12_10_0_0 <= 0
 inactive_no_flow_12_13_0_0: flow_12_13_0_0 - 1000 edge_12_13_0_0 <= 0
 inactive_no_flow_12_14_0_0: flow_12_14_0_0 - 1000 edge_12_14_0_0 <= 0
 inactive_no_flow_12_15_0_0: flow_12_15_0_0 - 1000 edge_12_15_0_0 <= 0
 inactive_no_flow_13_1_0_0: flow_13_1_0_0 - 1000 edge_13_1_0_0 <= 0
 inactive_no_flow_13_2_0_0: flow_13_2_0_0 - 1000 edge_13_2_0_0 <= 0
 inactive_no_flow_13_3_0_0: flow_13_3_0_0 - 1000 edge_13_3_0_0 <= 0
 inactive_no_flow_13_5_0_0: flow_13_5_0_0 - 1000 edge_13_5_0_0 <= 0
 inactive_no_flow_13_6_0_0: flow_13_6_0_0 - 1000 edge_13_6_0_0 <= 0
 inactive_no_flow_13_7_0_0: flow_13_7_0_0 - 1000 edge_13_7_0_0 <= 0
 inactive_no_flow_13_8_0_0: flow_13_8_0_0 - 1000 edge_13_8_0_0 <= 0
 inactive_no_flow_13_9_0_0: flow_13_9_0_0 - 1000 edge_13_9_0_0 <= 0
 inactive_no_flow_13_10_0_0: flow_13_10_0_0 - 1000 edge_13_10_0_0 <= 0
 inactive_no_flow_13_12_0_0: flow_13_12_0_0 - 1000 edge_13_12_0_0 <= 0
 inactive_no_flow_13_14_0_0: flow_13_14_0_0 - 1000 edge_13_14_0_0 <= 0
 inactive_no_flow_13_15_0_0: flow_13_15_0_0 - 1000 edge_13_15_0_0 <= 0
 inactive_no_flow_14_1_0_0: flow_14_1_0_0 - 1000 edge_14_1_0_0 <= 0
 inactive_no_flow_14_2_0_0: flow_14_2_0_0 - 1000 edge_14_2_0_0 <= 0
 inactive_no_flow_14_3_0_0: flow_14_3_0_0 - 1000 edge_14_3_0_0 <= 0
 inactive_no_flow_14_6_0_0: flow_14_6_0_0 - 1000 edge_14_6_0_0 <= 0
 inactive_no_flow_14_7_0_0: flow_14_7_0_0 - 1000 edge_14_7_0_0 <= 0
 inactive_no_flow_14_8_0_0: flow_14_8_0_0 - 1000 edge_14_8_0_0 <= 0
 inactive_no_flow_14_9_0_0: flow_14_9_0_0 - 1000 edge_14_9_0_0 <= 0
 inactive_no_flow_14_10_0_0: flow_14_10_0_0 - 1000 edge_14_10_0_0 <= 0
 inactive_no_flow_14_12_0_0: flow_14_12_0_0 - 1000 edge_14_12_0_0 <= 0
 inactive_no_flow_14_13_0_0: flow_14_13_0_0 - 1000 edge_14_13_0_0 <= 0
 inactive_no_flow_14_15_0_0: flow_14_15_0_0 - 1000 edge_14_15_0_0 <= 0
 inactive_no_flow_15_10_0_0: flow_15_10_0_0 - 1000 edge_15_10_0_0 <= 0
 inactive_no_flow_15_12_0_0: flow_15_12_0_0 - 1000 edge_15_12_0_0 <= 0
Bounds
Binaries
 edge_0_1_0_0 edge_0_2_0_0 edge_0_3_0_0 edge_0_6_0_0 edge_0_10_0_0
 edge_0_12_0_0 edge_0_13_0_0 edge_0_14_0_0 edge_1_2_0_0 edge_1_3_0_0
 edge_1_5_0_0 edge_1_6_0_0 edge_1_7_0_0 edge_1_8_0_0 edge_1_10_0_0
 edge_1_12_0_0 edge_1_13_0_0 edge_1_15_0_0 edge_2_1_0_0 edge_2_3_0_0
 edge_2_5_0_0 edge_2_6_0_0 edge_2_7_0_0 edge_2_8_0_0 edge_2_10_0_0
 edge_2_12_0_0 edge_2_13_0_0 edge_2_14_0_0 edge_2_15_0_0 edge_3_1_0_0
 edge_3_2_0_0 edge_3_5_0_0 edge_3_6_0_0 edge_3_7_0_0 edge_3_8_0_0
 edge_3_9_0_0 edge_3_10_0_0 edge_3_12_0_0 edge_3_13_0_0 edge_3_14_0_0
 edge_3_15_0_0 edge_5_1_0_0 edge_5_2_0_0 edge_5_3_0_0 edge_5_7_0_0
 edge_5_10_0_0 edge_5_12_0_0 edge_5_13_0_0 edge_5_14_0_0 edge_6_1_0_0
 edge_6_2_0_0 edge_6_3_0_0 edge_6_5_0_0 edge_6_7_0_0 edge_6_8_0_0
 edge_6_9_0_0 edge_6_10_0_0 edge_6_12_0_0 edge_6_13_0_0 edge_6_14_0_0
 edge_6_15_0_0 edge_7_1_0_0 edge_7_2_0_0 edge_7_3_0_0 edge_7_5_0_0
 edge_7_6_0_0 edge_7_8_0_0 edge_7_13_0_0 edge_7_14_0_0 edge_8_6_0_0
 edge_8_7_0_0 edge_8_10_0_0 edge_8_12_0_0 edge_8_13_0_0 edge_8_14_0_0
 edge_8_15_0_0 edge_9_14_0_0 edge_10_1_0_0 edge_10_2_0_0 edge_10_3_0_0
 edge_10_5_0_0 edge_10_6_0_0 edge_10_7_0_0 edge_10_9_0_0 edge_10_12_0_0
 edge_10_13_0_0 edge_10_14_0_0 edge_10_15_0_0 edge_12_1_0_0 edge_12_2_0_0
 edge_12_3_0_0 edge_12_5_0_0 edge_12_6_0_0 edge_12_7_0_0 edge_12_8_0_0
 edge_12_9_0_0 edge_12_10_0_0 edge_12_13_0_0 edge_12_14_0_0 edge_12_15_0_0
 edge_13_1_0_0 edge_13_2_0_0 edge_13_3_0_0 edge_13_5_0_0 edge_13_6_0_0
 edge_13_7_0_0 edge_13_8_0_0 edge_13_9_0_0 edge_13_10_0_0 edge_13_12_0_0
 edge_13_14_0_0 edge_13_15_0_0 edge_14_1_0_0 edge_14_2_0_0 edge_14_3_0_0
 edge_14_6_0_0 edge_14_7_0_0 edge_14_8_0_0 edge_14_9_0_0 edge_14_10_0_0
 edge_14_12_0_0 edge_14_13_0_0 edge_14_15_0_0 edge_15_10_0_0 edge_15_12_0_0
End
